<number of tasks>
50

<cycle time>
1000

<order strength>
0.605


<task times>
1 100
2 121
3 156
4 148
5 141
6 244
7 111
8 85
9 85
10 221
11 128
12 31
13 184
14 84
15 95
16 88
17 79
18 223
19 230
20 208
21 223
22 57
23 145
24 81
25 36
26 153
27 147
28 49
29 136
30 203
31 147
32 224
33 68
34 48
35 80
36 208
37 338
38 114
39 208
40 215
41 81
42 145
43 148
44 178
45 85
46 232
47 115
48 96
49 130
50 109

<precedence relations>
1,7
2,7
3,7
4,7
5,6
5,8
5,9
5,10
6,33
7,11
7,12
7,13
7,14
8,27
8,31
9,15
9,16
10,15
10,16
11,17
11,18
11,19
11,25
12,34
12,45
13,20
14,17
15,18
15,19
15,20
16,32
16,36
17,33
18,44
19,21
19,26
20,21
20,22
20,23
21,33
22,44
23,24
23,25
23,26
24,33
25,29
25,45
26,27
26,28
26,30
26,31
26,32
27,33
28,33
29,34
31,35
31,36
32,33
33,37
33,38
33,39
33,40
33,41
33,42
34,44
35,41
35,43
36,42
37,44
39,45
41,44
44,46
44,47
44,48
44,49
44,50

<end>
